true true true
presolving:
presolving (0 rounds: 0 fast, 0 medium, 0 exhaustive):
 0 deleted vars, 0 deleted constraints, 0 added constraints, 0 tightened bounds, 0 added holes, 0 changed sides, 0 changed coefficients
 0 implications, 0 cliques
presolved problem has 111 variables (111 bin, 0 int, 0 impl, 0 cont) and 100 constraints
    100 constraints of type <linear>
transformed objective value is always integral (scale: 1)
Presolving Time: 0.00

 time | node  | left  |LP iter|LP it/n|mem/heur|mdpt |vars |cons |rows |cuts |sepa|confs|strbr|  dualbound   | primalbound  |  gap   | compl. 
p 0.0s|     1 |     0 |     0 |     - |shiftand|   0 | 111 | 100 | 100 |   0 |  0 |   0 |   0 |      --      | 1.100000e+01 |    Inf | unknown
 time | node  | left  |LP iter|LP it/n|mem/heur|mdpt |vars |cons |rows |cuts |sepa|confs|strbr|  dualbound   | primalbound  |  gap   | compl. 
  0.2s|     1 |     0 |    58 |     - |  6992k |   0 |2046 | 100 | 100 |   0 |  0 |   0 |   0 | 1.000000e+00 | 1.100000e+01 |1000.00%| unknown
 time | node  | left  |LP iter|LP it/n|mem/heur|mdpt |vars |cons |rows |cuts |sepa|confs|strbr|  dualbound   | primalbound  |  gap   | compl. 
 7041s|     1 |     0 |  5169 |     - |    36M |   0 |  11k| 100 | 100 |   0 |  0 |   0 |   0 | 9.000000e+00 | 1.100000e+01 |  22.22%| unknown
 time | node  | left  |LP iter|LP it/n|mem/heur|mdpt |vars |cons |rows |cuts |sepa|confs|strbr|  dualbound   | primalbound  |  gap   | compl. 
 7045s|     1 |     2 | 10661 |     - |    39M |   0 |  11k| 100 | 100 |   0 |  1 |   0 |   0 | 9.000000e+00 | 1.100000e+01 |  22.22%| unknown
 time | node  | left  |LP iter|LP it/n|mem/heur|mdpt |vars |cons |rows |cuts |sepa|confs|strbr|  dualbound   | primalbound  |  gap   | compl. 
 7045s|     2 |     3 | 10781 | 120.0 |    39M |   1 |  11k| 100 | 100 |   0 |  1 |   0 |   0 | 9.000000e+00 | 1.100000e+01 |  22.22%| unknown
 time | node  | left  |LP iter|LP it/n|mem/heur|mdpt |vars |cons |rows |cuts |sepa|confs|strbr|  dualbound   | primalbound  |  gap   | compl. 
 7046s|     3 |     4 | 10796 |  67.5 |    41M |   1 |  11k| 100 | 100 |   0 |  1 |   0 |   0 | 9.000000e+00 | 1.100000e+01 |  22.22%| unknown
 time | node  | left  |LP iter|LP it/n|mem/heur|mdpt |vars |cons |rows |cuts |sepa|confs|strbr|  dualbound   | primalbound  |  gap   | compl. 
 7047s|     4 |     5 | 10859 |  66.0 |    41M |   2 |  11k| 100 | 100 |   0 |  1 |   0 |   0 | 9.000000e+00 | 1.100000e+01 |  22.22%| unknown
 time | node  | left  |LP iter|LP it/n|mem/heur|mdpt |vars |cons |rows |cuts |sepa|confs|strbr|  dualbound   | primalbound  |  gap   | compl. 
 7048s|     5 |     6 | 10871 |  52.5 |    41M |   3 |  11k| 100 | 100 |   0 |  1 |   0 |   0 | 9.000000e+00 | 1.100000e+01 |  22.22%| unknown
 time | node  | left  |LP iter|LP it/n|mem/heur|mdpt |vars |cons |rows |cuts |sepa|confs|strbr|  dualbound   | primalbound  |  gap   | compl. 
 7049s|     6 |     7 | 10911 |  50.0 |    41M |   4 |  11k| 100 | 100 |   0 |  1 |   0 |   0 | 9.000000e+00 | 1.100000e+01 |  22.22%| unknown
 time | node  | left  |LP iter|LP it/n|mem/heur|mdpt |vars |cons |rows |cuts |sepa|confs|strbr|  dualbound   | primalbound  |  gap   | compl. 
 7050s|     7 |     8 | 10971 |  51.7 |    41M |   5 |  11k| 100 | 100 |   0 |  1 |   0 |   0 | 9.000000e+00 | 1.100000e+01 |  22.22%| unknown
 time | node  | left  |LP iter|LP it/n|mem/heur|mdpt |vars |cons |rows |cuts |sepa|confs|strbr|  dualbound   | primalbound  |  gap   | compl. 
 7051s|     8 |     9 | 11248 |  83.9 |    42M |   6 |  11k| 100 | 100 |   0 |  1 |   0 |   0 | 9.000000e+00 | 1.100000e+01 |  22.22%| unknown
 time | node  | left  |LP iter|LP it/n|mem/heur|mdpt |vars |cons |rows |cuts |sepa|confs|strbr|  dualbound   | primalbound  |  gap   | compl. 
 7053s|     9 |    10 | 11364 |  87.9 |    42M |   6 |  11k| 100 | 100 |   0 |  1 |   0 |   0 | 9.000000e+00 | 1.100000e+01 |  22.22%| unknown
 time | node  | left  |LP iter|LP it/n|mem/heur|mdpt |vars |cons |rows |cuts |sepa|confs|strbr|  dualbound   | primalbound  |  gap   | compl. 
 7055s|    10 |    11 | 11492 |  92.3 |    42M |   7 |  11k| 100 | 100 |   0 |  1 |   0 |   0 | 9.000000e+00 | 1.100000e+01 |  22.22%| unknown
 time | node  | left  |LP iter|LP it/n|mem/heur|mdpt |vars |cons |rows |cuts |sepa|confs|strbr|  dualbound   | primalbound  |  gap   | compl. 
 7057s|    11 |    12 | 13031 | 237.0 |    44M |   8 |  11k| 100 | 100 |   0 |  1 |   0 |   0 | 9.000000e+00 | 1.100000e+01 |  22.22%| unknown
 time | node  | left  |LP iter|LP it/n|mem/heur|mdpt |vars |cons |rows |cuts |sepa|confs|strbr|  dualbound   | primalbound  |  gap   | compl. 
 7060s|    12 |    13 | 13132 | 224.6 |    44M |   8 |  11k| 100 | 100 |   0 |  1 |   0 |   0 | 9.000000e+00 | 1.100000e+01 |  22.22%| unknown
 time | node  | left  |LP iter|LP it/n|mem/heur|mdpt |vars |cons |rows |cuts |sepa|confs|strbr|  dualbound   | primalbound  |  gap   | compl. 
 7062s|    13 |    14 | 13168 | 208.9 |    44M |   8 |  11k| 100 | 100 |   0 |  1 |   0 |   0 | 9.000000e+00 | 1.100000e+01 |  22.22%| unknown
 time | node  | left  |LP iter|LP it/n|mem/heur|mdpt |vars |cons |rows |cuts |sepa|confs|strbr|  dualbound   | primalbound  |  gap   | compl. 
 7064s|    14 |    15 | 13197 | 195.1 |    44M |   9 |  11k| 100 | 100 |   0 |  1 |   0 |   0 | 9.000000e+00 | 1.100000e+01 |  22.22%| unknown
 time | node  | left  |LP iter|LP it/n|mem/heur|mdpt |vars |cons |rows |cuts |sepa|confs|strbr|  dualbound   | primalbound  |  gap   | compl. 
 7066s|    15 |    16 | 13380 | 194.2 |    44M |  10 |  11k| 100 | 100 |   0 |  1 |   0 |   0 | 9.000000e+00 | 1.100000e+01 |  22.22%| unknown
 time | node  | left  |LP iter|LP it/n|mem/heur|mdpt |vars |cons |rows |cuts |sepa|confs|strbr|  dualbound   | primalbound  |  gap   | compl. 
 7069s|    16 |    17 | 13456 | 186.3 |    44M |  11 |  11k| 100 | 100 |   0 |  1 |   0 |   0 | 9.000000e+00 | 1.100000e+01 |  22.22%| unknown
 time | node  | left  |LP iter|LP it/n|mem/heur|mdpt |vars |cons |rows |cuts |sepa|confs|strbr|  dualbound   | primalbound  |  gap   | compl. 
 7071s|    17 |    18 | 13491 | 176.9 |    44M |  12 |  11k| 100 | 100 |   0 |  1 |   0 |   0 | 9.000000e+00 | 1.100000e+01 |  22.22%| unknown
 time | node  | left  |LP iter|LP it/n|mem/heur|mdpt |vars |cons |rows |cuts |sepa|confs|strbr|  dualbound   | primalbound  |  gap   | compl. 
 7074s|    18 |    19 | 14336 | 216.2 |    45M |  13 |  12k| 100 | 100 |   0 |  1 |   0 |   0 | 9.000000e+00 | 1.100000e+01 |  22.22%| unknown
 time | node  | left  |LP iter|LP it/n|mem/heur|mdpt |vars |cons |rows |cuts |sepa|confs|strbr|  dualbound   | primalbound  |  gap   | compl. 
 7076s|    19 |    20 | 14378 | 206.5 |    45M |  14 |  12k| 100 | 100 |   0 |  1 |   0 |   0 | 9.000000e+00 | 1.100000e+01 |  22.22%| unknown
 time | node  | left  |LP iter|LP it/n|mem/heur|mdpt |vars |cons |rows |cuts |sepa|confs|strbr|  dualbound   | primalbound  |  gap   | compl. 
 7078s|    20 |    21 | 14429 | 198.3 |    45M |  15 |  12k| 100 | 100 |   0 |  1 |   0 |   0 | 9.000000e+00 | 1.100000e+01 |  22.22%| unknown
 time | node  | left  |LP iter|LP it/n|mem/heur|mdpt |vars |cons |rows |cuts |sepa|confs|strbr|  dualbound   | primalbound  |  gap   | compl. 
 7081s|    21 |    22 | 14566 | 195.2 |    45M |  16 |  12k| 100 | 100 |   0 |  1 |   0 |   0 | 9.000000e+00 | 1.100000e+01 |  22.22%| unknown
 time | node  | left  |LP iter|LP it/n|mem/heur|mdpt |vars |cons |rows |cuts |sepa|confs|strbr|  dualbound   | primalbound  |  gap   | compl. 
 7083s|    22 |    23 | 14699 | 192.3 |    46M |  17 |  12k| 100 | 100 |   0 |  1 |   0 |   0 | 9.000000e+00 | 1.100000e+01 |  22.22%| unknown
 time | node  | left  |LP iter|LP it/n|mem/heur|mdpt |vars |cons |rows |cuts |sepa|confs|strbr|  dualbound   | primalbound  |  gap   | compl. 
 7086s|    23 |    24 | 14980 | 196.3 |    46M |  18 |  12k| 100 | 100 |   0 |  1 |   0 |   0 | 9.000000e+00 | 1.100000e+01 |  22.22%| unknown

SCIP Status        : solving was interrupted [time limit reached]
Solving Time (sec) : 7299.80
Solving Nodes      : 24
Primal Bound       : +1.10000000000000e+01 (1 solutions)
Dual Bound         : +9.00000000000000e+00
Gap                : 22.22 %
Running with parallel: True bidir: True symbreak: True
Number of Nodes:  100
49.481700000000004% holds
starting cheapest insertion heuristic
Heuristic without TSP improvement:  12
Heuristic without TSP improvement time:  0.2
Heuristic Sol:  11
Heuristic total time:  0.8
[[22, 73, 14, 84, 45, 41, 77, 98, 56, 60, 38, 6], [37, 17, 58, 28, 67, 23, 2, 83, 31, 13, 19], [57, 81, 62, 51, 20, 86, 29, 32, 16, 26], [68, 11, 46, 21, 80, 40, 35], [74, 64, 36, 91, 97, 71, 92, 90, 89, 79, 10], [9, 76, 53, 0, 55], [27, 33, 72, 3, 82, 93, 94, 61, 44, 4], [43, 63, 87, 78, 25, 65, 47, 15, 39], [88, 54, 42, 12, 7, 34, 75, 1, 70, 85, 5, 8], [99, 66, 48, 96, 59, 24, 50], [95, 30, 69, 52, 49, 18]]
Instance path:  /home/htc/mghannam/SCRATCH/lccp-rust/data/t84_kroC100.npcc
Timelimit:  7200
Heuristic without TSP improvement:  12
Heuristic without TSP improvement time:  0.2
Heuristic Sol:  11
Heuristic total time:  2.4
at 1 zero_duals: 89
at1, LP obj: 11.0 n_added_paths: 1935
at 1 zero_duals: 72
at1, LP obj: 11.0 n_added_paths: 436
at 1 zero_duals: 60
at1, LP obj: 11.0 n_added_paths: 1235
at 1 zero_duals: 44
at1, LP obj: 11.0 n_added_paths: 1301
at 1 zero_duals: 24
at1, LP obj: 10.668367346938776 n_added_paths: 1382
at 1 zero_duals: 20
at1, LP obj: 10.170723355685547 n_added_paths: 1185
at 1 zero_duals: 11
at1, LP obj: 9.865932874786479 n_added_paths: 1035
at 1 zero_duals: 14
at1, LP obj: 9.536101919387857 n_added_paths: 699
at 1 zero_duals: 4
at1, LP obj: 9.323998853793631 n_added_paths: 725
at 1 zero_duals: 7
at1, LP obj: 9.132746310682663 n_added_paths: 248
at 1 zero_duals: 1
at1, LP obj: 9.02040303059735 n_added_paths: 221
at 1 zero_duals: 5
at1, LP obj: 8.940203000837457 n_added_paths: 120
at 1 zero_duals: 2
at1, LP obj: 8.884462433584352 n_added_paths: 126
at 1 zero_duals: 2
Switching to elementary pricing
at1, LP obj: 8.863392246644894 n_added_paths: 293
updated lowerbound from 1.0 to 7
at 1 zero_duals: 3
at1, LP obj: 8.69052176741753 n_added_paths: 75
at 1 zero_duals: 2
at1, LP obj: 8.670098087254003 n_added_paths: 16
at 1 zero_duals: 2
at1, LP obj: 8.660813168642596 n_added_paths: 30
at 1 zero_duals: 5
Switching to elementary pricing
at1, LP obj: 8.654835960028292 n_added_paths: 120
updated lowerbound from 7.0 to 8
at 1 zero_duals: 3
at1, LP obj: 8.60675580631749 n_added_paths: 25
at 1 zero_duals: 3
Switching to elementary pricing
at1, LP obj: 8.604539173401449 n_added_paths: 28
updated lowerbound from 8.0 to 9
Gap too small = 0, stopping pricing with lb = 9
Gap too small = 0, stopping pricing with lb = 9
Gap too small = 0, stopping pricing with lb = 9
Gap too small = 0, stopping pricing with lb = 9
Gap too small = 0, stopping pricing with lb = 9
Gap too small = 0, stopping pricing with lb = 9
Gap too small = 0, stopping pricing with lb = 9
Gap too small = 0, stopping pricing with lb = 9
Gap too small = 0, stopping pricing with lb = 9
Gap too small = 0, stopping pricing with lb = 9
Gap too small = 0, stopping pricing with lb = 9
Gap too small = 0, stopping pricing with lb = 9
Gap too small = 0, stopping pricing with lb = 9
Gap too small = 0, stopping pricing with lb = 9
Gap too small = 0, stopping pricing with lb = 9
Gap too small = 0, stopping pricing with lb = 9
Gap too small = 0, stopping pricing with lb = 9
at 34 zero_duals: 15
at34, LP obj: 9.053416894107935 n_added_paths: 782
Gap too small = 0, stopping pricing with lb = 9
Gap too small = 0, stopping pricing with lb = 9
Gap too small = 0, stopping pricing with lb = 9
Gap too small = 0, stopping pricing with lb = 9
Gap too small = 0, stopping pricing with lb = 9
at 44 zero_duals: 16
at44, LP obj: 9.010112294735222 n_added_paths: 363
Gap too small = 0, stopping pricing with lb = 9
at 46 zero_duals: 99
at46, LP obj: 1e+20 n_added_paths: 29
at 46 zero_duals: 3
at46, LP obj: 9.918007460591623 n_added_paths: 651
at 46 zero_duals: 16
at46, LP obj: 9.690674869171923 n_added_paths: 226
at 46 zero_duals: 6
at46, LP obj: 9.484752289135008 n_added_paths: 157
at 46 zero_duals: 2
Switching to elementary pricing
at46, LP obj: 9.38120906165882 n_added_paths: 170
Best solution found:
t_[27, 33, 94, 72, 3, 93, 39, 0, 44, 61, 4, 27] 1.0 1.0
checking cycle [27, 33, 94, 72, 3, 93, 39, 0, 44, 61, 4, 27]
[27, 33, 94, 72, 3, 93, 39, 0, 44, 61, 4, 27] 2724 2630
t_[37, 17, 58, 28, 67, 23, 2, 83, 31, 13, 19, 37] 1.0 1.0
checking cycle [37, 17, 58, 28, 67, 23, 2, 83, 31, 13, 19, 37]
[37, 17, 58, 28, 67, 23, 2, 83, 31, 13, 19, 37] 3002 2662
t_[43, 82, 63, 87, 78, 6, 22, 73, 43] 1.0 1.0
checking cycle [43, 82, 63, 87, 78, 6, 22, 73, 43]
[43, 82, 63, 87, 78, 6, 22, 73, 43] 2876 2708
t_[47, 25, 8, 75, 34, 7, 54, 88, 65, 15, 47] 1.0 1.0
checking cycle [47, 25, 8, 75, 34, 7, 54, 88, 65, 15, 47]
[47, 25, 8, 75, 34, 7, 54, 88, 65, 15, 47] 2873 2689
t_[57, 81, 62, 51, 20, 86, 29, 32, 16, 26, 57] 1.0 1.0
checking cycle [57, 81, 62, 51, 20, 86, 29, 32, 16, 26, 57]
[57, 81, 62, 51, 20, 86, 29, 32, 16, 26, 57] 2943 2396
t_[46, 21, 80, 40, 35, 68, 11, 46] 1.0 1.0
checking cycle [46, 21, 80, 40, 35, 68, 11, 46]
[46, 21, 80, 40, 35, 68, 11, 46] 3081 2960
t_[85, 1, 59, 24, 96, 48, 66, 70, 5, 85] 1.0 1.0
checking cycle [85, 1, 59, 24, 96, 48, 66, 70, 5, 85]
[85, 1, 59, 24, 96, 48, 66, 70, 5, 85] 2646 2603
t_[99, 50, 99] 1.0 1.0
checking cycle [99, 50, 99]
[99, 50, 99] 2595 180
t_[60, 98, 77, 56, 74, 64, 36, 10, 45, 84, 14, 41, 38, 30, 60] 1.0 1.0
checking cycle [60, 98, 77, 56, 74, 64, 36, 10, 45, 84, 14, 41, 38, 30, 60]
[60, 98, 77, 56, 74, 64, 36, 10, 45, 84, 14, 41, 38, 30, 60] 2606 2352
t_[89, 92, 71, 97, 9, 91, 90, 79, 53, 76, 55, 89] 1.0 1.0
checking cycle [89, 92, 71, 97, 9, 91, 90, 79, 53, 76, 55, 89]
[89, 92, 71, 97, 9, 91, 90, 79, 53, 76, 55, 89] 2610 2607
t_[95, 69, 12, 42, 52, 49, 18, 95] 1.0 1.0
checking cycle [95, 69, 12, 42, 52, 49, 18, 95]
[95, 69, 12, 42, 52, 49, 18, 95] 2672 2535
